\* The Whiskas Problem *\
Minimize
Total_Cost_of_Ingredients_per_can: 0.008 Ingr_BEEF + 0.013 Ingr_CHICKEN
 + 0.001 Ingr_GEL + 0.01 Ingr_MUTTON + 0.002 Ingr_RICE + 0.005 Ingr_WHEAT
Subject To
ProteinRequirement: 0.2 Ingr_BEEF + 0.1 Ingr_CHICKEN + 0.15 Ingr_MUTTON
 + 0.04 Ingr_WHEAT >= 8
End
